c nIsolatedPIs 0
c maxPI 8
p cnf 42 103
c gate 9 3 7 0
3 -9 0
7 -9 0
-3 -7 9 0
c gate 10 5 -9 0
5 -10 0
-9 -10 0
-5 9 10 0
c gate 11 -1 -3 0
-1 -11 0
-3 -11 0
1 3 11 0
c gate 12 1 -7 0
1 -12 0
-7 -12 0
-1 7 12 0
c gate 13 -11 -12 0
-11 -13 0
-12 -13 0
11 12 13 0
c gate 14 10 13 0
10 -14 0
13 -14 0
-10 -13 14 0
c gate 15 1 -5 0
1 -15 0
-5 -15 0
-1 5 15 0
c gate 16 9 15 0
9 -16 0
15 -16 0
-9 -15 16 0
c gate 17 -14 -16 0
-14 -17 0
-16 -17 0
14 16 17 0
c gate 18 -6 -17 0
-6 -18 0
-17 -18 0
6 17 18 0
c gate 19 -1 6 0
-1 -19 0
6 -19 0
1 -6 19 0
c gate 20 7 19 0
7 -20 0
19 -20 0
-7 -19 20 0
c gate 21 10 20 0
10 -21 0
20 -21 0
-10 -20 21 0
c gate 22 -18 -21 0
-18 -22 0
-21 -22 0
18 21 22 0
c gate 23 2 4 0
2 -23 0
4 -23 0
-2 -4 23 0
c gate 24 -8 23 0
-8 -24 0
23 -24 0
8 -23 24 0
c gate 25 -22 24 0
-22 -25 0
24 -25 0
22 -24 25 0
c gate 26 -1 2 0
-1 -26 0
2 -26 0
1 -2 26 0
c gate 27 -4 -7 0
-4 -27 0
-7 -27 0
4 7 27 0
c gate 28 26 27 0
26 -28 0
27 -28 0
-26 -27 28 0
c gate 29 6 28 0
6 -29 0
28 -29 0
-6 -28 29 0
c gate 30 1 -6 0
1 -30 0
-6 -30 0
-1 6 30 0
c gate 31 -19 -30 0
-19 -31 0
-30 -31 0
19 30 31 0
c gate 32 -2 4 0
-2 -32 0
4 -32 0
2 -4 32 0
c gate 33 7 32 0
7 -33 0
32 -33 0
-7 -32 33 0
c gate 34 -31 33 0
-31 -34 0
33 -34 0
31 -33 34 0
c gate 35 -29 -34 0
-29 -35 0
-34 -35 0
29 34 35 0
c gate 36 5 -35 0
5 -36 0
-35 -36 0
-5 35 36 0
c gate 37 -5 -6 0
-5 -37 0
-6 -37 0
5 6 37 0
c gate 38 28 37 0
28 -38 0
37 -38 0
-28 -37 38 0
c gate 39 -36 -38 0
-36 -39 0
-38 -39 0
36 38 39 0
c gate 40 3 8 0
3 -40 0
8 -40 0
-3 -8 40 0
c gate 41 -39 40 0
-39 -41 0
40 -41 0
39 -40 41 0
c gate 42 -25 -41 0
-25 -42 0
-41 -42 0
25 41 42 0
c PO
-42 0
